Optimal - objective value 753.00000000
      2 x_0_2                    1                       0
     10 x_1_3                    1                       0
     18 x_2_4                    1                       0
     21 x_3_0                    1                       0
     33 x_4_5                    1                       0
     36 x_5_1                    1                       0
     48 x_6_6                    1                       0
    123 y_0_2_1_3                1                      58
    130 y_0_2_2_4                1                      86
    133 y_0_2_3_0                1                      98
    143 y_0_2_4_5                1                     108
    146 y_0_2_5_1                1                     132
    156 y_0_2_6_6                1                     114
    394 y_1_3_2_4                1                      16
    397 y_1_3_3_0                1                      16
    407 y_1_3_4_5                1                       8
    410 y_1_3_5_1                1                       7
    420 y_1_3_6_6                1                      12
    607 y_2_4_3_0                1                       4
    617 y_2_4_4_5                1                       8
    620 y_2_4_5_1                1                       3
    630 y_2_4_6_6                1                       7
    683 y_3_0_4_5                1                      21
    685 y_3_0_5_1                1                      10
    696 y_3_0_6_6                1                       3
    866 y_4_5_5_1                1                      16
    876 y_4_5_6_6                1                      10
    900 y_5_1_6_6                1                      16
